data/benchmarks/bayes/75-12-7-q.cnf
p cnf 672 665
c weights 0.453516 0.546484 1 1 1 1 1 1 1 1 1 1 1 1 1 1 1 1 1 1 1 1 1 1 1 1 1 1 1 1 1 1 1 1 1 1 1 1 1 1 1 1 1 1 1 1 1 1 1 1 1 1 1 1 1 1 1 1 1 1 1 1 1 1 1 1 1 1 1 1 1 1 1 1 1 1 1 1 1 1 1 1 1 1 1 1 1 1 1 1 1 1 1 1 1 1 1 1 1 1 1 1 1 1 1 1 1 1 1 1 1 1 1 1 1 1 1 1 1 1 1 1 1 1 1 1 1 1 1 1 1 1 1 1 1 1 1 1 1 1 1 1 1 1 1 1 1 1 1 1 1 1 1 1 1 1 1 1 1 1 1 1 1 1 1 1 1 1 1 1 1 1 1 1 1 1 1 1 1 1 1 1 1 1 1 1 1 1 1 1 1 1 1 1 1 1 1 1 1 1 1 1 1 1 1 1 1 1 1 1 1 1 1 1 1 1 1 1 1 1 1 1 1 1 1 1 1 1 1 1 1 1 1 1 1 1 1 1 1 1 1 1 1 1 1 1 1 1 1 1 1 1 1 1 1 1 1 1 1 1 1 1 1 1 1 1 1 1 1 1 1 1 1 1 1 1 1 1 1 1 1 1 1 1 1 1 1 1 0.5 0.5 0.5 0.5 0.5 0.5 0.5 0.5 0.5 0.5 0.5 0.5 0.23371 0.76629 0.0926657 0.9073343 0.5 0.5 0.5 0.5 0.5 0.5 0.5 0.5 0.203387 0.796613 0.802134 0.197866 0.5 0.5 0.5 0.5 0.5 0.5 0.5 0.5 0.349618 0.650382 0.525157 0.474843 0.5 0.5 0.5 0.5 0.0229817 0.9770183 0.486757 0.513243 0.5 0.5 0.5 0.5 0.5 0.5 0.5 0.5 0.5 0.5 0.5 0.5 0.5 0.5 0.5 0.5 0.5 0.5 0.5 0.5 0.5 0.5 0.5 0.5 0.358041 0.641959 0.238271 0.761729 0.604012 0.395988 0.0892405 0.9107594999999999 0.5 0.5 0.5 0.5 0.5 0.5 0.5 0.5 0.5 0.5 0.5 0.5 0.5 0.5 0.5 0.5 0.514339 0.485661 0.147664 0.852336 0.923613 0.07638699999999998 0.123274 0.876726 0.5 0.5 0.5 0.5 0.5 0.5 0.5 0.5 0.63019 0.36980999999999997 0.140824 0.8591759999999999 0.789125 0.21087500000000003 0.784844 0.21515600000000001 0.5 0.5 0.5 0.5 0.5 0.5 0.5 0.5 0.5 0.5 0.5 0.5 0.5 0.5 0.5 0.5 0.5 0.5 0.5 0.5 0.5 0.5 0.5 0.5 0.5 0.5 0.5 0.5 0.5 0.5 0.5 0.5 0.5 0.5 0.5 0.5 0.581282 0.41871800000000003 0.574453 0.425547 0.8341 0.16590000000000005 0.422835 0.5771649999999999 0.5 0.5 0.5 0.5 0.5 0.5 0.5 0.5 0.5 0.5 0.5 0.5 0.5 0.5 0.5 0.5 0.5 0.5 0.5 0.5 0.5 0.5 0.5 0.5 0.5 0.5 0.5 0.5 0.5 0.5 0.5 0.5 0.5 0.5 0.5 0.5 0.5 0.5 0.5 0.5 0.5 0.5 0.5 0.5 0.5 0.5 0.5 0.5 0.5 0.5 0.5 0.5 0.5 0.5 0.5 0.5 0.5 0.5 0.5 0.5 0.5 0.5 0.5 0.5 0.5 0.5 0.5 0.5 0.5 0.5 0.5 0.5 0.5 0.5 0.5 0.5 0.5 0.5 0.5 0.5 0.5 0.5 0.5 0.5 0.5 0.5 0.5 0.5 0.5 0.5 0.5 0.5 0.5 0.5 0.5 0.5 0.5 0.5 0.5 0.5 0.5 0.5 0.5 0.5 0.5 0.5 0.5 0.5 0.5 0.5 0.5 0.5 0.5 0.5 0.5 0.5 0.990583 0.009417000000000009 0.932632 0.06736799999999998 0.513673 0.48632699999999995 0.0493441 0.9506559 0.5 0.5 0.5 0.5 0.5 0.5 0.5 0.5 0.5 0.5 0.5 0.5 0.5 0.5 0.5 0.5 0.5 0.5 0.5 0.5 0.5 0.5 0.5 0.5 0.5 0.5 0.5 0.5 0.5 0.5 0.5 0.5 0.5 0.5 0.5 0.5 0.174244 0.8257559999999999 0.42536 0.57464 0.728968 0.27103200000000005 0.159747 0.840253 0.5 0.5 0.5 0.5 0.5 0.5 0.5 0.5 0.5 0.5 0.5 0.5 0.5 0.5 0.5 0.5 0.5 0.5 0.5 0.5 0.5 0.5 0.5 0.5 0.5 0.5 0.5 0.5 0.5 0.5 0.5 0.5 0.5 0.5 0.5 0.5 0.5 0.5 0.5 0.5 0.5 0.5 0.5 0.5 0.5 0.5 0.5 0.5 0.954567 0.045432999999999946 0.598204 0.40179600000000004 0.849409 0.15059100000000003 0.281257 0.718743 0.5 0.5 0.5 0.5 0.5 0.5 0.5 0.5 0.5 0.5 0.5 0.5 0.5 0.5 0.5 0.5 0.5 0.5 0.5 0.5 0.5 0.5 0.5 0.5 0.5 0.5 0.5 0.5 0.5 0.5 0.5 0.5 0.5 0.5 0.5 0.5 0.5 0.5 0.5 0.5 0.5 0.5 0.5 0.5 0.712543 0.28745699999999996 0.0476758 0.9523242 0.67836 0.32164000000000004 0.817233 0.182767 0.5 0.5 0.5 0.5 0.5 0.5 0.5 0.5 0.473503 0.526497 0.134793 0.8652070000000001 0.913503 0.08649700000000005 0.336962 0.663038 0.38011 0.61989 0.46398 0.5360199999999999 0.105739 0.894261 0.568789 0.431211 0.5 0.5 0.5 0.5 0.5 0.5 0.5 0.5 0.5 0.5 0.5 0.5 0.5 0.5 0.5 0.5 0.3422 0.6577999999999999 0.354273 0.6457269999999999 0.980303 0.019696999999999965 0.0205604 0.9794396 0.5 0.5 0.5 0.5 0.5 0.5 0.5 0.5 0.5 0.5 0.5 0.5 0.5 0.5 0.5 0.5 0.5 0.5 0.5 0.5 0.5 0.5 0.5 0.5 0.5 0.5 0.5 0.5 0.5 0.5 0.5 0.5 0.5 0.5 0.5 0.5 0.5 0.5 0.5 0.5 0.5 0.5 0.5 0.5 0.589454 0.41054599999999997 0.397029 0.6029709999999999 0.119208 0.880792 0.97325 0.02675000000000005 0.5 0.5 0.5 0.5 0.5 0.5 0.5 0.5 0.992341 0.007658999999999971 0.162963 0.837037 0.842009 0.157991 0.244176 0.755824 0.5 0.5 0.5 0.5 0.5 0.5 0.5 0.5 0.5 0.5 0.5 0.5 0.5 0.5 0.5 0.5 0.5 0.5 0.5 0.5 0.5 0.5 0.5 0.5 0.5 0.5 0.5 0.5 0.5 0.5 0.5 0.5 0.5 0.5 0.5 0.5 0.5 0.5 0.5 0.5 0.5 0.5 0.5 0.5 0.5 0.5 0.5 0.5 0.5 0.5 0.5 0.5 0.109635 0.890365 0.488494 0.511506 0.391732 0.608268 0.556768 0.44323199999999996 0.5 0.5 0.5 0.5 0.5 0.5 0.5 0.5 0.5 0.5 0.5 0.5 0.5 0.5 0.5 0.5 0.931832 0.068168 0.391003 0.608997 0.89252 0.10748000000000002 0.282375 0.717625 0.5 0.5 0.5 0.5 0.5 0.5 0.5 0.5 0.5 0.5 0.5 0.5 0.5 0.5 0.5 0.5 0.5 0.5 0.5 0.5 0.5 0.5 0.5 0.5 0.5 0.5 0.5 0.5 0.5 0.5 0.5 0.5 0.746556 0.253444 0.879549 0.12045099999999997 0.674934 0.32506599999999997 0.840048 0.15995199999999998 0.5 0.5 0.5 0.5 0.5 0.5 0.5 0.5 0.5 0.5 0.5 0.5 0.5 0.5 0.5 0.5 0.5 0.5 0.5 0.5 0.555438 0.444562 0.335097 0.664903 0.79246 0.20753999999999995 0.671501 0.328499 0.742726 0.257274 0.276059 0.723941 0.709189 0.29081100000000004 0.249759 0.7502409999999999 0.5 0.5 0.5 0.5 0.5 0.5 0.5 0.5 0.5 0.5 0.5 0.5 0.5 0.5 0.5 0.5 0.5 0.5 0.5 0.5 0.5 0.5 0.5 0.5 0.17905 0.8209500000000001 0.12892 0.87108 0.906987 0.09301300000000001 0.788007 0.211993 0.858816 0.14118399999999998 0.343445 0.656555 0.181621 0.818379 0.651275 0.34872499999999995 0.5 0.5 0.5 0.5 0.5 0.5 0.5 0.5 0.5 0.5 0.5 0.5 0.5 0.5 0.5 0.5 0.0785833 0.9214167 0.885853 0.114147 0.496479 0.503521 0.00932044 0.99067956 0.5 0.5 0.5 0.5 0.5 0.5 0.5 0.5 0.5 0.5 0.5 0.5 0.5 0.5 0.5 0.5 0.5 0.5 0.5 0.5 0.675156 0.324844 0.625874 0.37412599999999996 0.492823 0.507177 0.690102 0.309898 0.5 0.5 0.5 0.5 0.5 0.5 0.5 0.5 0.5 0.5 0.5 0.5 0.5 0.5 0.5 0.5 0.5 0.5 0.5 0.5 0.5 0.5 0.5 0.5 0.5 0.5 0.5 0.5 0.5 0.5 0.5 0.5 0.5 0.5 0.5 0.5 0.5 0.5 0.5 0.5 0.974358 0.025642000000000054 0.175517 0.824483 0.454983 0.545017 0.467181 0.5328189999999999 0.0887543 0.9112457 0.354005 0.645995 0.846726 0.15327400000000002 0.439613 0.560387 0.548113 0.45188700000000004 0.654409 0.345591 0.403069 0.596931 0.112792 0.887208 0.5 0.5 0.5 0.5 0.5 0.5 0.5 0.5 0.5 0.5 0.5 0.5 0.594955 0.405045 0.151204 0.848796 0.711961 0.28803900000000004 0.745033 0.25496700000000005 0.5 0.5 0.5 0.5 0.5 0.5 0.5 0.5 0.995732 0.0042680000000000495 0.380909 0.6190910000000001 0.319382 0.680618 0.861351 0.13864900000000002 0.5 0.5 0.5 0.5 0.5 0.5 0.5 0.5 0.5 0.5 0.5 0.5 0.5 0.5 0.5 0.5 0.932304 0.06769599999999998 0.541594 0.458406 0.567691 0.43230900000000005 0.452926 0.5470740000000001 0.5 0.5 0.5 0.5 0.5 0.5 0.5 0.5 0.53891 0.46109 0.301303 0.698697 0.670756 0.329244 0.359125 0.640875 0.5 0.5 0.5 0.5 0.5 0.5 0.5 0.5 0.5 0.5 0.5 0.5 0.5 0.5 0.5 0.5 0.5 0.5 0.5 0.5 0.5 0.5 0.5 0.5 0.5 0.5 0.5 0.5 0.5 0.5 0.5 0.5 0.5 0.5 0.5 0.5 0.5 0.5 0.5 0.5 0.5 0.5 0.5 0.5 0.5 0.5 0.5 0.5 0.5 0.5 0.5 0.5 0.907785 0.09221500000000005 0.397298 0.6027020000000001 0.811533 0.18846700000000005 0.123994 0.8760060000000001 0.5 0.5 0.5 0.5 0.5 0.5 0.5 0.5 0.5 0.5 0.5 0.5 0.5 0.5 0.5 0.5 0.5 0.5 0.5 0.5 0.5 0.5 0.5 0.5 0.5 0.5 0.5 0.5 0.5 0.5 0.5 0.5 0.398942 0.601058 0.0447701 0.9552299 0.663127 0.336873 0.368136 0.631864 0.0604252 0.9395748 0.179668 0.8203320000000001 0.0765492 0.9234508 0.535524 0.464476
-1 2 0
1 -2 0
-2 3 0
2 -3 0
-3 4 0
3 -4 0
-4 -151 5 0
-4 151 -5 0
4 -152 5 0
4 152 -5 0
-5 6 0
5 -6 0
-6 7 0
6 -7 0
-7 -157 8 0
-7 157 -8 0
7 -158 8 0
7 158 -8 0
-8 -9 0
8 9 0
-9 10 0
9 -10 0
-10 -163 11 0
-10 163 -11 0
10 -164 11 0
10 164 -11 0
-11 -12 0
11 12 0
-1 -167 13 0
-1 167 -13 0
1 -168 13 0
1 168 -13 0
-13 -2 14 0
-13 2 -14 0
13 -2 14 0
13 2 -14 0
-14 -3 -15 0
-14 3 -15 0
14 -3 -15 0
14 3 15 0
-15 -4 -16 0
-15 4 16 0
15 -4 16 0
15 4 16 0
-16 -5 -181 17 0
-16 -5 181 -17 0
-16 5 -182 17 0
-16 5 182 -17 0
16 -5 -183 17 0
16 -5 183 -17 0
16 5 -184 17 0
16 5 184 -17 0
-17 -6 -18 0
-17 6 -18 0
17 -6 18 0
17 6 -18 0
-18 -7 -19 0
-18 7 -19 0
18 -7 19 0
18 7 -19 0
-19 -8 -193 20 0
-19 -8 193 -20 0
-19 8 -194 20 0
-19 8 194 -20 0
19 -8 -195 20 0
19 -8 195 -20 0
19 8 -196 20 0
19 8 196 -20 0
-20 -9 -21 0
-20 9 -21 0
20 -9 21 0
20 9 -21 0
-21 -10 -201 22 0
-21 -10 201 -22 0
-21 10 -202 22 0
-21 10 202 -22 0
21 -10 -203 22 0
21 -10 203 -22 0
21 10 -204 22 0
21 10 204 -22 0
-22 -11 -23 0
-22 11 23 0
22 -11 -23 0
22 11 -23 0
-23 -12 -24 0
-23 12 -24 0
23 -12 24 0
23 12 -24 0
-13 -25 0
13 25 0
-25 -14 26 0
-25 14 -26 0
25 -14 -26 0
25 14 -26 0
-26 -15 27 0
-26 15 -27 0
26 -15 -27 0
26 15 -27 0
-27 -16 -223 28 0
-27 -16 223 -28 0
-27 16 -224 28 0
-27 16 224 -28 0
27 -16 -225 28 0
27 -16 225 -28 0
27 16 -226 28 0
27 16 226 -28 0
-28 -17 -29 0
-28 17 -29 0
28 -17 29 0
28 17 -29 0
-29 -18 30 0
-29 18 30 0
29 -18 30 0
29 18 -30 0
-30 -19 31 0
-30 19 -31 0
30 -19 31 0
30 19 31 0
-31 -20 32 0
-31 20 -32 0
31 -20 -32 0
31 20 -32 0
-32 -21 33 0
-32 21 -33 0
32 -21 33 0
32 21 33 0
-33 -22 -34 0
-33 22 -34 0
33 -22 34 0
33 22 -34 0
-34 -23 35 0
-34 23 -35 0
34 -23 35 0
34 23 -35 0
-35 -24 -36 0
-35 24 36 0
35 -24 -36 0
35 24 36 0
-25 37 0
25 -37 0
-37 -26 38 0
-37 26 -38 0
37 -26 -38 0
37 26 38 0
-38 -27 -39 0
-38 27 39 0
38 -27 39 0
38 27 39 0
-39 -28 40 0
-39 28 -40 0
39 -28 -40 0
39 28 -40 0
-40 -29 -41 0
-40 29 41 0
40 -29 -41 0
40 29 41 0
-41 -30 -42 0
-41 30 -42 0
41 -30 42 0
41 30 42 0
-42 -31 -43 0
-42 31 -43 0
42 -31 43 0
42 31 -43 0
-43 -32 -285 44 0
-43 -32 285 -44 0
-43 32 -286 44 0
-43 32 286 -44 0
43 -32 -287 44 0
43 -32 287 -44 0
43 32 -288 44 0
43 32 288 -44 0
-44 -33 -45 0
-44 33 45 0
44 -33 -45 0
44 33 45 0
-45 -34 -46 0
-45 34 -46 0
45 -34 46 0
45 34 -46 0
-46 -35 -47 0
-46 35 47 0
46 -35 -47 0
46 35 -47 0
-47 -36 48 0
-47 36 48 0
47 -36 -48 0
47 36 -48 0
-37 -49 0
37 49 0
-49 -38 -307 50 0
-49 -38 307 -50 0
-49 38 -308 50 0
-49 38 308 -50 0
49 -38 -309 50 0
49 -38 309 -50 0
49 38 -310 50 0
49 38 310 -50 0
-50 -39 -51 0
-50 39 -51 0
50 -39 51 0
50 39 51 0
-51 -40 -52 0
-51 40 52 0
51 -40 52 0
51 40 52 0
-52 -41 -53 0
-52 41 53 0
52 -41 -53 0
52 41 53 0
-53 -42 54 0
-53 42 -54 0
53 -42 54 0
53 42 54 0
-54 -43 55 0
-54 43 55 0
54 -43 -55 0
54 43 55 0
-55 -44 -56 0
-55 44 56 0
55 -44 56 0
55 44 -56 0
-56 -45 -335 57 0
-56 -45 335 -57 0
-56 45 -336 57 0
-56 45 336 -57 0
56 -45 -337 57 0
56 -45 337 -57 0
56 45 -338 57 0
56 45 338 -57 0
-57 -46 58 0
-57 46 -58 0
57 -46 58 0
57 46 58 0
-58 -47 59 0
-58 47 -59 0
58 -47 59 0
58 47 -59 0
-59 -48 60 0
-59 48 60 0
59 -48 -60 0
59 48 60 0
-49 -61 0
49 61 0
-61 -50 -62 0
-61 50 -62 0
61 -50 62 0
61 50 62 0
-62 -51 -63 0
-62 51 63 0
62 -51 -63 0
62 51 63 0
-63 -52 -361 64 0
-63 -52 361 -64 0
-63 52 -362 64 0
-63 52 362 -64 0
63 -52 -363 64 0
63 -52 363 -64 0
63 52 -364 64 0
63 52 364 -64 0
-64 -53 -65 0
-64 53 65 0
64 -53 65 0
64 53 65 0
-65 -54 -369 66 0
-65 -54 369 -66 0
-65 54 -370 66 0
-65 54 370 -66 0
65 -54 -371 66 0
65 -54 371 -66 0
65 54 -372 66 0
65 54 372 -66 0
-66 -55 -373 67 0
-66 -55 373 -67 0
-66 55 -374 67 0
-66 55 374 -67 0
66 -55 -375 67 0
66 -55 375 -67 0
66 55 -376 67 0
66 55 376 -67 0
-67 -56 68 0
-67 56 -68 0
67 -56 -68 0
67 56 -68 0
-68 -57 69 0
-68 57 -69 0
68 -57 -69 0
68 57 69 0
-69 -58 -385 70 0
-69 -58 385 -70 0
-69 58 -386 70 0
-69 58 386 -70 0
69 -58 -387 70 0
69 -58 387 -70 0
69 58 -388 70 0
69 58 388 -70 0
-70 -59 -71 0
-70 59 71 0
70 -59 71 0
70 59 -71 0
-71 -60 72 0
-71 60 72 0
71 -60 72 0
71 60 -72 0
-61 -73 0
61 73 0
-73 -62 74 0
-73 62 -74 0
73 -62 -74 0
73 62 -74 0
-74 -63 -75 0
-74 63 -75 0
74 -63 75 0
74 63 75 0
-75 -64 -76 0
-75 64 76 0
75 -64 76 0
75 64 -76 0
-76 -65 -411 77 0
-76 -65 411 -77 0
-76 65 -412 77 0
-76 65 412 -77 0
76 -65 -413 77 0
76 -65 413 -77 0
76 65 -414 77 0
76 65 414 -77 0
-77 -66 -78 0
-77 66 78 0
77 -66 -78 0
77 66 -78 0
-78 -67 -419 79 0
-78 -67 419 -79 0
-78 67 -420 79 0
-78 67 420 -79 0
78 -67 -421 79 0
78 -67 421 -79 0
78 67 -422 79 0
78 67 422 -79 0
-79 -68 80 0
-79 68 80 0
79 -68 -80 0
79 68 -80 0
-80 -69 -81 0
-80 69 -81 0
80 -69 81 0
80 69 81 0
-81 -70 -82 0
-81 70 82 0
81 -70 82 0
81 70 82 0
-82 -71 -83 0
-82 71 -83 0
82 -71 -83 0
82 71 83 0
-83 -72 -84 0
-83 72 84 0
83 -72 -84 0
83 72 -84 0
-73 -85 0
73 85 0
-85 -74 86 0
-85 74 86 0
85 -74 -86 0
85 74 86 0
-86 -75 -449 87 0
-86 -75 449 -87 0
-86 75 -450 87 0
-86 75 450 -87 0
86 -75 -451 87 0
86 -75 451 -87 0
86 75 -452 87 0
86 75 452 -87 0
-87 -76 88 0
-87 76 -88 0
87 -76 88 0
87 76 88 0
-88 -77 -89 0
-88 77 89 0
88 -77 89 0
88 77 -89 0
-89 -78 -461 90 0
-89 -78 461 -90 0
-89 78 -462 90 0
-89 78 462 -90 0
89 -78 -463 90 0
89 -78 463 -90 0
89 78 -464 90 0
89 78 464 -90 0
-90 -79 -91 0
-90 79 91 0
90 -79 -91 0
90 79 -91 0
-91 -80 92 0
-91 80 92 0
91 -80 -92 0
91 80 -92 0
-92 -81 -93 0
-92 81 93 0
92 -81 -93 0
92 81 -93 0
-93 -82 94 0
-93 82 94 0
93 -82 -94 0
93 82 -94 0
-94 -83 -481 95 0
-94 -83 481 -95 0
-94 83 -482 95 0
-94 83 482 -95 0
94 -83 -483 95 0
94 -83 483 -95 0
94 83 -484 95 0
94 83 484 -95 0
-95 -84 -96 0
-95 84 -96 0
95 -84 96 0
95 84 -96 0
-85 97 0
85 -97 0
-97 -86 98 0
-97 86 98 0
97 -86 -98 0
97 86 -98 0
-98 -87 -495 99 0
-98 -87 495 -99 0
-98 87 -496 99 0
-98 87 496 -99 0
98 -87 -497 99 0
98 -87 497 -99 0
98 87 -498 99 0
98 87 498 -99 0
-99 -88 -499 100 0
-99 -88 499 -100 0
-99 88 -500 100 0
-99 88 500 -100 0
99 -88 -501 100 0
99 -88 501 -100 0
99 88 -502 100 0
99 88 502 -100 0
-100 -89 101 0
-100 89 -101 0
100 -89 -101 0
100 89 -101 0
-101 -90 -102 0
-101 90 102 0
101 -90 -102 0
101 90 -102 0
-102 -91 -103 0
-102 91 103 0
102 -91 -103 0
102 91 103 0
-103 -92 -515 104 0
-103 -92 515 -104 0
-103 92 -516 104 0
-103 92 516 -104 0
103 -92 -517 104 0
103 -92 517 -104 0
103 92 -518 104 0
103 92 518 -104 0
-104 -93 -519 105 0
-104 -93 519 -105 0
-104 93 -520 105 0
-104 93 520 -105 0
104 -93 -521 105 0
104 -93 521 -105 0
104 93 -522 105 0
104 93 522 -105 0
-105 -94 106 0
-105 94 -106 0
105 -94 106 0
105 94 106 0
-106 -95 107 0
-106 95 107 0
106 -95 -107 0
106 95 107 0
-107 -96 -531 108 0
-107 -96 531 -108 0
-107 96 -532 108 0
-107 96 532 -108 0
107 -96 -533 108 0
107 -96 533 -108 0
107 96 -534 108 0
107 96 534 -108 0
-97 -109 0
97 109 0
-109 -98 -110 0
-109 98 110 0
109 -98 -110 0
109 98 -110 0
-110 -99 111 0
-110 99 -111 0
110 -99 111 0
110 99 111 0
-111 -100 -545 112 0
-111 -100 545 -112 0
-111 100 -546 112 0
-111 100 546 -112 0
111 -100 -547 112 0
111 -100 547 -112 0
111 100 -548 112 0
111 100 548 -112 0
-112 -101 -113 0
-112 101 113 0
112 -101 -113 0
112 101 -113 0
-113 -102 114 0
-113 102 -114 0
113 -102 114 0
113 102 -114 0
-114 -103 -115 0
-114 103 115 0
114 -103 -115 0
114 103 115 0
-115 -104 116 0
-115 104 116 0
115 -104 -116 0
115 104 -116 0
-116 -105 -117 0
-116 105 117 0
116 -105 -117 0
116 105 -117 0
-117 -106 -569 118 0
-117 -106 569 -118 0
-117 106 -570 118 0
-117 106 570 -118 0
117 -106 -571 118 0
117 -106 571 -118 0
117 106 -572 118 0
117 106 572 -118 0
-118 -107 -573 119 0
-118 -107 573 -119 0
-118 107 -574 119 0
-118 107 574 -119 0
118 -107 -575 119 0
118 -107 575 -119 0
118 107 -576 119 0
118 107 576 -119 0
-119 -108 -577 120 0
-119 -108 577 -120 0
-119 108 -578 120 0
-119 108 578 -120 0
119 -108 -579 120 0
119 -108 579 -120 0
119 108 -580 120 0
119 108 580 -120 0
-109 -121 0
109 121 0
-121 -110 122 0
-121 110 -122 0
121 -110 -122 0
121 110 -122 0
-122 -111 -587 123 0
-122 -111 587 -123 0
-122 111 -588 123 0
-122 111 588 -123 0
122 -111 -589 123 0
122 -111 589 -123 0
122 111 -590 123 0
122 111 590 -123 0
-123 -112 -124 0
-123 112 -124 0
123 -112 124 0
123 112 124 0
-124 -113 -595 125 0
-124 -113 595 -125 0
-124 113 -596 125 0
-124 113 596 -125 0
124 -113 -597 125 0
124 -113 597 -125 0
124 113 -598 125 0
124 113 598 -125 0
-125 -114 126 0
-125 114 126 0
125 -114 126 0
125 114 -126 0
-126 -115 -127 0
-126 115 127 0
126 -115 127 0
126 115 -127 0
-127 -116 -607 128 0
-127 -116 607 -128 0
-127 116 -608 128 0
-127 116 608 -128 0
127 -116 -609 128 0
127 -116 609 -128 0
127 116 -610 128 0
127 116 610 -128 0
-128 -117 -129 0
-128 117 -129 0
128 -117 129 0
128 117 -129 0
-129 -118 -615 130 0
-129 -118 615 -130 0
-129 118 -616 130 0
-129 118 616 -130 0
129 -118 -617 130 0
129 -118 617 -130 0
129 118 -618 130 0
129 118 618 -130 0
-130 -119 131 0
-130 119 -131 0
130 -119 131 0
130 119 -131 0
-131 -120 -132 0
-131 120 -132 0
131 -120 -132 0
131 120 132 0
-121 133 0
121 -133 0
-133 -122 134 0
-133 122 -134 0
133 -122 -134 0
133 122 -134 0
-134 -123 135 0
-134 123 135 0
134 -123 -135 0
134 123 135 0
-135 -124 136 0
-135 124 -136 0
135 -124 136 0
135 124 136 0
-136 -125 -137 0
-136 125 -137 0
136 -125 137 0
136 125 137 0
-137 -126 -645 138 0
-137 -126 645 -138 0
-137 126 -646 138 0
-137 126 646 -138 0
137 -126 -647 138 0
137 -126 647 -138 0
137 126 -648 138 0
137 126 648 -138 0
-138 -127 -139 0
-138 127 -139 0
138 -127 139 0
138 127 -139 0
-139 -128 140 0
-139 128 140 0
139 -128 140 0
139 128 -140 0
-140 -129 -141 0
-140 129 141 0
140 -129 -141 0
140 129 -141 0
-141 -130 -142 0
-141 130 142 0
141 -130 -142 0
141 130 142 0
-142 -131 -665 143 0
-142 -131 665 -143 0
-142 131 -666 143 0
-142 131 666 -143 0
142 -131 -667 143 0
142 -131 667 -143 0
142 131 -668 143 0
142 131 668 -143 0
-143 -132 -669 144 0
-143 -132 669 -144 0
-143 132 -670 144 0
-143 132 670 -144 0
143 -132 -671 144 0
143 -132 671 -144 0
143 132 -672 144 0
143 132 672 -144 0
144 0
