data/benchmarks/bayes/75-12-7-q.gr
p tw 672 785
55 66
67 68
107 531
99 100
88 100
144 669
127 607
117 572
100 501
116 607
70 82
8 9
137 648
120 577
40 41
29 41
92 515
100 101
65 372
118 616
11 23
130 618
121 133
126 647
41 42
73 74
62 74
44 285
133 134
44 56
86 449
16 223
14 15
3 15
123 587
69 387
58 387
74 75
79 419
106 107
89 463
78 463
95 107
99 495
122 133
132 672
28 224
15 16
47 48
36 48
54 371
108 580
107 108
96 108
21 203
18 30
128 140
21 32
80 81
69 81
140 141
113 124
129 141
10 22
111 590
81 82
54 65
78 422
67 422
102 114
103 515
87 498
5 181
17 183
22 23
43 55
114 115
87 98
103 115
99 499
88 499
55 56
28 39
27 223
76 88
88 99
143 672
29 40
77 89
118 615
65 371
119 580
130 617
2 13
62 73
110 122
3 14
51 63
35 46
95 106
132 671
36 47
108 579
128 139
143 667
21 22
13 167
69 80
113 114
119 575
129 616
16 181
112 545
10 21
111 589
54 55
95 483
78 421
67 421
102 113
44 288
87 497
17 182
43 54
87 88
28 29
17 29
76 87
88 89
109 121
143 671
29 30
61 62
50 62
50 309
121 122
119 579
2 3
62 63
94 95
83 95
105 519
110 121
142 666
3 4
125 595
35 36
24 36
5 184
108 533
43 287
32 287
95 96
84 96
122 589
52 363
127 128
116 128
131 665
19 195
8 195
9 20
68 69
57 69
98 497
27 226
64 364
118 573
107 573
128 129
117 129
143 666
20 196
69 70
42 53
58 70
94 481
67 375
83 481
101 102
90 102
119 574
87 451
10 11
129 615
31 43
111 588
5 152
95 482
75 86
102 103
91 103
123 135
93 521
43 44
16 27
32 44
64 76
135 136
108 119
124 136
5 17
17 28
56 337
45 337
76 77
65 77
97 109
6 18
128 609
57 338
111 547
50 61
100 547
98 110
82 93
1 168
50 308
104 517
39 51
23 34
16 184
112 548
83 94
131 143
115 126
63 363
142 665
24 35
72 84
56 67
43 286
32 286
108 532
122 588
52 362
106 571
116 127
9 10
19 194
8 194
57 68
98 496
89 100
118 572
30 41
42 43
90 101
67 374
134 135
104 521
87 450
22 204
31 42
70 388
113 597
75 76
5 151
123 134
93 520
105 522
77 414
16 17
125 598
64 75
96 531
5 16
49 50
38 50
131 668
56 336
45 336
109 110
130 142
118 576
107 576
128 608
50 51
82 83
71 83
111 546
100 546
94 484
142 143
1 167
50 307
55 376
104 516
23 24
12 24
83 84
115 116
104 116
63 362
56 57
8 157
45 57
116 117
105 117
124 597
52 361
106 570
90 464
57 58
46 58
89 90
78 90
66 372
49 310
38 310
10 202
30 31
19 31
90 91
63 74
79 91
111 123
67 373
104 520
87 449
22 203
4 15
31 32
20 32
52 64
76 412
65 412
113 596
141 142
123 124
112 124
77 413
64 65
53 65
85 97
5 6
26 38
117 571
100 500
38 49
97 98
70 81
86 98
118 130
137 647
130 141
66 376
27 39
11 22
75 452
128 607
71 82
119 131
126 646
138 648
55 375
104 515
12 23
60 72
44 55
104 115
69 386
58 386
1 13
122 123
89 462
78 462
45 56
93 105
28 223
124 596
54 370
106 569
96 107
90 463
107 534
21 202
18 29
96 534
144 672
127 610
116 610
78 89
126 138
66 371
120 580
92 518
10 201
19 30
129 140
63 64
111 122
4 5
25 37
76 411
65 411
52 63
86 452
16 226
123 590
79 422
103 114
37 38
99 498
26 37
70 71
59 71
100 499
117 570
118 129
130 131
137 646
77 88
11 12
130 616
65 370
92 104
126 645
138 647
44 45
33 45
103 518
125 137
51 62
69 385
58 385
89 461
78 461
132 670
66 78
99 502
88 502
137 138
124 595
54 369
108 578
18 19
7 19
144 671
21 201
10 164
99 111
120 579
129 130
40 52
118 618
111 112
100 112
132 144
78 420
67 420
73 85
44 287
87 496
17 181
7 158
86 451
16 225
123 589
103 104
14 26
79 421
85 86
99 497
106 118
136 137
47 59
59 70
117 569
118 119
107 119
143 670
77 78
137 645
130 615
65 369
119 578
80 92
92 103
110 111
33 44
81 93
51 52
103 517
5 183
125 136
84 95
143 144
132 669
66 77
114 126
99 501
88 501
108 577
27 225
64 363
55 67
117 128
10 163
143 665
20 195
99 110
58 69
119 573
40 51
118 617
132 143
111 587
95 481
91 102
25 26
78 419
67 419
44 286
87 495
32 43
123 588
14 25
124 135
79 420
17 18
99 496
106 117
65 76
47 58
6 17
143 669
57 337
98 109
83 484
21 33
119 577
80 91
113 125
39 50
129 618
16 183
112 547
131 142
54 66
13 25
5 182
17 184
43 285
32 285
72 83
108 531
122 587
87 99
19 193
8 193
98 495
117 118
28 40
27 224
64 362
118 571
120 132
20 194
58 59
61 73
70 387
91 92
2 14
93 519
105 521
32 33
94 106
142 668
125 597
124 125
35 47
127 139
65 66
131 667
56 335
45 335
68 80
6 7
118 575
107 575
139 140
143 668
98 99
57 336
111 545
100 545
94 483
83 483
13 168
101 113
39 40
119 576
129 617
16 182
112 546
131 132
95 484
63 361
105 116
46 57
64 361
118 570
49 309
38 309
120 131
20 193
79 90
50 310
104 519
22 202
20 31
70 386
113 595
112 123
105 520
94 105
77 412
53 64
142 667
125 596
108 534
43 288
32 288
122 590
52 364
38 39
127 138
131 666
19 196
8 196
86 97
9 21
98 498
66 375
68 79
118 574
27 38
107 574
75 451
71 72
57 335
119 130
42 54
94 482
83 482
55 374
67 376
101 112
87 452
60 71
104 105
75 87
13 14
45 46
34 46
93 522
93 104
105 106
16 28
107 533
90 462
46 47
96 533
108 120
78 79
67 79
127 609
116 609
126 137
56 338
45 338
49 61
66 370
138 139
19 20
8 20
118 569
49 308
38 308
92 517
79 80
128 610
111 548
100 548
82 94
20 21
52 53
41 53
22 201
104 518
70 385
112 113
23 35
115 127
53 54
63 364
77 411
74 86
28 226
56 68
11 164
26 27
15 27
106 572
86 87
4 152
89 101
27 28
66 374
48 60
75 450
10 204
119 120
30 42
138 646
55 373
104 522
76 414
65 414
113 598
1 2
22 34
34 45
93 94
7 18
107 532
90 461
96 532
144 670
67 78
126 127
127 608
100 502
116 608
66 369
120 578
8 19
49 307
38 307
92 516
100 111
126 648
41 52
7 157
86 450
16 224
69 388
58 388
88 500
89 464
74 85
78 464
122 134
8 158
28 225
124 598
11 163
15 26
54 372
59 60
21 204
107 118
4 151
66 373
48 59
92 93
75 449
10 203
138 645
63 75
33 34
81 92
76 413
4 16
65 413
103 516
125 126
22 33
34 35
66 67
114 125
99 500
37 49
7 8
